NAME : mtspf.pid4530.gtsp.133317818.tour
COMMENT : Length = 133317818
COMMENT : Found by LKH [Keld Helsgaun] Wed Jan 15 10:35:28 2025
TYPE : TOUR
DIMENSION : 85
TOUR_SECTION
1
57
54
55
56
60
61
58
59
17
14
15
16
85
82
83
84
2
64
65
62
63
77
74
75
76
66
67
68
69
39
40
41
38
18
19
20
21
33
30
31
32
9
6
7
8
50
51
52
53
5
26
27
28
29
23
24
25
22
3
34
35
36
37
80
81
78
79
4
11
12
13
10
42
43
44
45
72
73
70
71
47
48
49
46
-1
EOF
